Ge Pd  O  C                             
   1.00000000000000     
     9.5955783787227933   -5.5400097599857592    0.0000000000000000
     0.0000000000000000   11.0800195199715183    0.0000000000000000
     0.0000000000000000    0.0000000000000000   16.8536192812870311
   Ge   Pd   O    C 
    16    48     1     1
Selective dynamics
Direct
  0.4131174934609987  0.5868713345067437  0.2487029693038388   T   T   T
  0.6640977366449811  0.8324639788420218  0.2499842423708390   T   T   T
  0.1644436109952584  0.8355550027011518  0.2484934428911686   T   T   T
  0.9152337193251149  0.5838318347253574  0.2483573423724925   T   T   T
  0.1674968165082507  0.3357888347159331  0.2499290762396807   T   T   T
  0.9163158765076957  0.0837288385787578  0.2501913138720009   T   T   T
  0.4161220703139350  0.0848891490932660  0.2483761339586488   T   T   T
  0.6662026664736255  0.3338135950313445  0.2489094090869211   T   T   T
  0.0356035003447630  0.9643687532036425  0.4134940220605258   T   T   T
  0.7781585001011004  0.7068375768170185  0.4191358593886904   T   T   T
  0.2571876727060574  0.7427296971098430  0.4197222756229147   T   T   T
  0.5410381245546237  0.9429093247534268  0.4196485195927087   T   T   T
  0.2932985049948962  0.2218869232220834  0.4188603259557196   T   T   T
  0.5761041309746401  0.4239952143892047  0.4180920033132877   T   T   T
  0.0568471301196950  0.4588901722874326  0.4195206277669573   T   T   T
  0.7983787020439129  0.2014478439632209  0.4138553980711849   T   T   T
  0.7500000000000000  0.2500000000000000  0.0000000000000000   F   F   F
  0.0000000000000000  0.5000000000000000  0.0000000000000000   F   F   F
  0.5000000000000000  0.5000000000000000  0.0000000000000000   F   F   F
  0.2500000000000000  0.2500000000000000  0.0000000000000000   F   F   F
  0.5000000000000000  0.0000000000000000  0.0000000000000000   F   F   F
  0.2500000000000000  0.7500000000000000  0.0000000000000000   F   F   F
  0.7500000000000000  0.7500000000000000  0.0000000000000000   F   F   F
  0.0000000000000000  0.0000000000000000  0.0000000000000000   F   F   F
  0.3333299999999966  0.6666700000000034  0.1341999999999999   F   F   F
  0.5000000000000000  0.2500000000000000  0.0000000000000000   F   F   F
  0.1607038082307448  0.5897755911025520  0.2838604291531774   T   T   T
  0.7500000000000000  0.5000000000000000  0.0000000000000000   F   F   F
  0.4107088394837873  0.8399313452008581  0.2838944731871556   T   T   T
  0.8333299999999966  0.4166700000000034  0.1341999999999999   F   F   F
  0.5398676200380998  0.7048663047931285  0.3809798466733227   T   T   T
  0.0833299999999966  0.4166700000000034  0.1341999999999999   F   F   F
  0.0833299999999966  0.6666700000000034  0.1341999999999999   F   F   F
  0.7911452444684823  0.9570064951753889  0.3861793185915577   T   T   T
  0.3333299999999966  0.4166700000000034  0.1341999999999999   F   F   F
  0.0218241336967914  0.7227248070316900  0.3766599761040094   T   T   T
  0.5833300000000037  0.4166700000000034  0.1341999999999999   F   F   F
  0.5833300000000037  0.6666700000000034  0.1341999999999999   F   F   F
  0.2770452207855608  0.9778778818167397  0.3766412988018499   T   T   T
  0.8333299999999966  0.6666700000000034  0.1341999999999999   F   F   F
  0.0000000000000000  0.2500000000000000  0.0000000000000000   F   F   F
  0.6724956548148299  0.5775006315523051  0.2831233452839024   T   T   T
  0.2500000000000000  0.5000000000000000  0.0000000000000000   F   F   F
  0.9062969574149209  0.8405402030987618  0.2760106632338095   T   T   T
  0.3333299999999966  0.9166700000000034  0.1341999999999999   F   F   F
  0.0425450093108666  0.2083124283393372  0.3860909522459993   T   T   T
  0.5833300000000037  0.9166700000000034  0.1341999999999999   F   F   F
  0.5833300000000037  0.1666700000000034  0.1341999999999999   F   F   F
  0.2945582043990392  0.4597637765282331  0.3808978306208282   T   T   T
  0.8333299999999966  0.1666700000000034  0.1341999999999999   F   F   F
  0.0000000000000000  0.7500000000000000  0.0000000000000000   F   F   F
  0.6740687034047210  0.0735983211250242  0.2761039646241267   T   T   T
  0.2500000000000000  0.0000000000000000  0.0000000000000000   F   F   F
  0.9266670252223752  0.3262092138498036  0.2760966607057596   T   T   T
  0.3333299999999966  0.1666700000000034  0.1341999999999999   F   F   F
  0.5000000000000000  0.7500000000000000  0.0000000000000000   F   F   F
  0.1599743290909146  0.0941137876369601  0.2760062237115312   T   T   T
  0.7500000000000000  0.0000000000000000  0.0000000000000000   F   F   F
  0.4232207723486264  0.3284447160794359  0.2830377420115118   T   T   T
  0.8333299999999966  0.9166700000000034  0.1341999999999999   F   F   F
  0.5566213813541636  0.1874460186287583  0.3776193852800052   T   T   T
  0.0833299999999966  0.9166700000000034  0.1341999999999999   F   F   F
  0.0833299999999966  0.1666700000000034  0.1341999999999999   F   F   F
  0.8124034924575618  0.4431823310017884  0.3775874064162278   T   T   T
  0.4157909253554492  0.5832436645521316  0.5462783162095952   T   T   T
  0.4163477915142164  0.5831003233956660  0.4767529428349613   T   T   T
 
  0.00000000E+00  0.00000000E+00  0.00000000E+00
  0.00000000E+00  0.00000000E+00  0.00000000E+00
  0.00000000E+00  0.00000000E+00  0.00000000E+00
  0.00000000E+00  0.00000000E+00  0.00000000E+00
  0.00000000E+00  0.00000000E+00  0.00000000E+00
  0.00000000E+00  0.00000000E+00  0.00000000E+00
  0.00000000E+00  0.00000000E+00  0.00000000E+00
  0.00000000E+00  0.00000000E+00  0.00000000E+00
  0.00000000E+00  0.00000000E+00  0.00000000E+00
  0.00000000E+00  0.00000000E+00  0.00000000E+00
  0.00000000E+00  0.00000000E+00  0.00000000E+00
  0.00000000E+00  0.00000000E+00  0.00000000E+00
  0.00000000E+00  0.00000000E+00  0.00000000E+00
  0.00000000E+00  0.00000000E+00  0.00000000E+00
  0.00000000E+00  0.00000000E+00  0.00000000E+00
  0.00000000E+00  0.00000000E+00  0.00000000E+00
  0.00000000E+00  0.00000000E+00  0.00000000E+00
  0.00000000E+00  0.00000000E+00  0.00000000E+00
  0.00000000E+00  0.00000000E+00  0.00000000E+00
  0.00000000E+00  0.00000000E+00  0.00000000E+00
  0.00000000E+00  0.00000000E+00  0.00000000E+00
  0.00000000E+00  0.00000000E+00  0.00000000E+00
  0.00000000E+00  0.00000000E+00  0.00000000E+00
  0.00000000E+00  0.00000000E+00  0.00000000E+00
  0.00000000E+00  0.00000000E+00  0.00000000E+00
  0.00000000E+00  0.00000000E+00  0.00000000E+00
  0.00000000E+00  0.00000000E+00  0.00000000E+00
  0.00000000E+00  0.00000000E+00  0.00000000E+00
  0.00000000E+00  0.00000000E+00  0.00000000E+00
  0.00000000E+00  0.00000000E+00  0.00000000E+00
  0.00000000E+00  0.00000000E+00  0.00000000E+00
  0.00000000E+00  0.00000000E+00  0.00000000E+00
  0.00000000E+00  0.00000000E+00  0.00000000E+00
  0.00000000E+00  0.00000000E+00  0.00000000E+00
  0.00000000E+00  0.00000000E+00  0.00000000E+00
  0.00000000E+00  0.00000000E+00  0.00000000E+00
  0.00000000E+00  0.00000000E+00  0.00000000E+00
  0.00000000E+00  0.00000000E+00  0.00000000E+00
  0.00000000E+00  0.00000000E+00  0.00000000E+00
  0.00000000E+00  0.00000000E+00  0.00000000E+00
  0.00000000E+00  0.00000000E+00  0.00000000E+00
  0.00000000E+00  0.00000000E+00  0.00000000E+00
  0.00000000E+00  0.00000000E+00  0.00000000E+00
  0.00000000E+00  0.00000000E+00  0.00000000E+00
  0.00000000E+00  0.00000000E+00  0.00000000E+00
  0.00000000E+00  0.00000000E+00  0.00000000E+00
  0.00000000E+00  0.00000000E+00  0.00000000E+00
  0.00000000E+00  0.00000000E+00  0.00000000E+00
  0.00000000E+00  0.00000000E+00  0.00000000E+00
  0.00000000E+00  0.00000000E+00  0.00000000E+00
  0.00000000E+00  0.00000000E+00  0.00000000E+00
  0.00000000E+00  0.00000000E+00  0.00000000E+00
  0.00000000E+00  0.00000000E+00  0.00000000E+00
  0.00000000E+00  0.00000000E+00  0.00000000E+00
  0.00000000E+00  0.00000000E+00  0.00000000E+00
  0.00000000E+00  0.00000000E+00  0.00000000E+00
  0.00000000E+00  0.00000000E+00  0.00000000E+00
  0.00000000E+00  0.00000000E+00  0.00000000E+00
  0.00000000E+00  0.00000000E+00  0.00000000E+00
  0.00000000E+00  0.00000000E+00  0.00000000E+00
  0.00000000E+00  0.00000000E+00  0.00000000E+00
  0.00000000E+00  0.00000000E+00  0.00000000E+00
  0.00000000E+00  0.00000000E+00  0.00000000E+00
  0.00000000E+00  0.00000000E+00  0.00000000E+00
  0.00000000E+00  0.00000000E+00  0.00000000E+00
  0.00000000E+00  0.00000000E+00  0.00000000E+00
