Ge Pd  O  C H                           
   1.00000000000000     
     9.5955783787227933   -5.5400097599857592    0.0000000000000000
     0.0000000000000000   11.0800195199715183    0.0000000000000000
     0.0000000000000000    0.0000000000000000   16.8536192812870311
   Ge   Pd   O    C    H 
    16    48     1     0     1
Selective dynamics
Direct
  0.4140920740683029  0.5859218527805442  0.2482191660149313   T   T   T
  0.6660311550494272  0.8362923521928770  0.2479039384920866   T   T   T
  0.1640317279389066  0.8359624924708347  0.2487553579711419   T   T   T
  0.9124069621130820  0.5837024995612207  0.2495133050248802   T   T   T
  0.1636725392734536  0.3340413900814375  0.2479090950666640   T   T   T
  0.9156501279531459  0.0843761992349890  0.2497298633830151   T   T   T
  0.4162385884605043  0.0875666443617382  0.2494940212247523   T   T   T
  0.6698227210659715  0.3302006864249388  0.2481443073138007   T   T   T
  0.0393081395477378  0.9607661726401860  0.4131392323534139   T   T   T
  0.7844001588491472  0.7251792960114554  0.4182558013142499   T   T   T
  0.2715886599595683  0.7284458839809191  0.4160152148657346   T   T   T
  0.5384532351889182  0.9438221226759873  0.4192825467364979   T   T   T
  0.2747709869887776  0.2157367724754665  0.4182550238857813   T   T   T
  0.5781688015497637  0.4220441173155864  0.4136236520137020   T   T   T
  0.0562225475226300  0.4615746209600940  0.4193955664321118   T   T   T
  0.7976098251071626  0.2022819771331743  0.4141961986239738   T   T   T
  0.7500000000000000  0.2500000000000000  0.0000000000000000   F   F   F
  0.0000000000000000  0.5000000000000000  0.0000000000000000   F   F   F
  0.5000000000000000  0.5000000000000000  0.0000000000000000   F   F   F
  0.2500000000000000  0.2500000000000000  0.0000000000000000   F   F   F
  0.5000000000000000  0.0000000000000000  0.0000000000000000   F   F   F
  0.2500000000000000  0.7500000000000000  0.0000000000000000   F   F   F
  0.7500000000000000  0.7500000000000000  0.0000000000000000   F   F   F
  0.0000000000000000  0.0000000000000000  0.0000000000000000   F   F   F
  0.3333299999999966  0.6666700000000034  0.1341999999999999   F   F   F
  0.5000000000000000  0.2500000000000000  0.0000000000000000   F   F   F
  0.1578122711146075  0.5907176009973487  0.2802717955287658   T   T   T
  0.7500000000000000  0.5000000000000000  0.0000000000000000   F   F   F
  0.4091208694986638  0.8418701938566715  0.2802644966998998   T   T   T
  0.8333299999999966  0.4166700000000034  0.1341999999999999   F   F   F
  0.5416354637841778  0.7169431093176170  0.3722229746835300   T   T   T
  0.0833299999999966  0.4166700000000034  0.1341999999999999   F   F   F
  0.0833299999999966  0.6666700000000034  0.1341999999999999   F   F   F
  0.7916667103185077  0.9618433585706123  0.3845407185238592   T   T   T
  0.3333299999999966  0.4166700000000034  0.1341999999999999   F   F   F
  0.0270988544997544  0.7177937637306254  0.3774049042782756   T   T   T
  0.5833300000000037  0.4166700000000034  0.1341999999999999   F   F   F
  0.5833300000000037  0.6666700000000034  0.1341999999999999   F   F   F
  0.2821577334468989  0.9729070524241727  0.3773738926346866   T   T   T
  0.8333299999999966  0.6666700000000034  0.1341999999999999   F   F   F
  0.0000000000000000  0.2500000000000000  0.0000000000000000   F   F   F
  0.6708876598743584  0.5780331625191609  0.2891847682408853   T   T   T
  0.2500000000000000  0.5000000000000000  0.0000000000000000   F   F   F
  0.9082567879282655  0.8385882729896983  0.2766571699526612   T   T   T
  0.3333299999999966  0.9166700000000034  0.1341999999999999   F   F   F
  0.0381331295258453  0.2084568728605469  0.3844751362090335   T   T   T
  0.5833300000000037  0.9166700000000034  0.1341999999999999   F   F   F
  0.5833300000000037  0.1666700000000034  0.1341999999999999   F   F   F
  0.2830194247294524  0.4584935724927616  0.3722332683371567   T   T   T
  0.8333299999999966  0.1666700000000034  0.1341999999999999   F   F   F
  0.0000000000000000  0.7500000000000000  0.0000000000000000   F   F   F
  0.6707361347377346  0.0776564256768093  0.2768219099919124   T   T   T
  0.2500000000000000  0.0000000000000000  0.0000000000000000   F   F   F
  0.9220173596690857  0.3291187734188631  0.2767960289989665   T   T   T
  0.3333299999999966  0.1666700000000034  0.1341999999999999   F   F   F
  0.5000000000000000  0.7500000000000000  0.0000000000000000   F   F   F
  0.1614916538335257  0.0918702232236432  0.2766306914457171   T   T   T
  0.7500000000000000  0.0000000000000000  0.0000000000000000   F   F   F
  0.4221078126870602  0.3293607127501068  0.2892827101616193   T   T   T
  0.8333299999999966  0.9166700000000034  0.1341999999999999   F   F   F
  0.5579373861153915  0.1893027525772286  0.3840740664117178   T   T   T
  0.0833299999999966  0.9166700000000034  0.1341999999999999   F   F   F
  0.0833299999999966  0.1666700000000034  0.1341999999999999   F   F   F
  0.8108154370492191  0.4420283119729328  0.3842541252277654   T   T   T
  0.5223544422181630  0.4768791042977902  0.5032271264386581   T   T   T
  0.5515990813229895  0.4496604443561845  0.5514258873418141   T   T   T
 
  0.00000000E+00  0.00000000E+00  0.00000000E+00
  0.00000000E+00  0.00000000E+00  0.00000000E+00
  0.00000000E+00  0.00000000E+00  0.00000000E+00
  0.00000000E+00  0.00000000E+00  0.00000000E+00
  0.00000000E+00  0.00000000E+00  0.00000000E+00
  0.00000000E+00  0.00000000E+00  0.00000000E+00
  0.00000000E+00  0.00000000E+00  0.00000000E+00
  0.00000000E+00  0.00000000E+00  0.00000000E+00
  0.00000000E+00  0.00000000E+00  0.00000000E+00
  0.00000000E+00  0.00000000E+00  0.00000000E+00
  0.00000000E+00  0.00000000E+00  0.00000000E+00
  0.00000000E+00  0.00000000E+00  0.00000000E+00
  0.00000000E+00  0.00000000E+00  0.00000000E+00
  0.00000000E+00  0.00000000E+00  0.00000000E+00
  0.00000000E+00  0.00000000E+00  0.00000000E+00
  0.00000000E+00  0.00000000E+00  0.00000000E+00
  0.00000000E+00  0.00000000E+00  0.00000000E+00
  0.00000000E+00  0.00000000E+00  0.00000000E+00
  0.00000000E+00  0.00000000E+00  0.00000000E+00
  0.00000000E+00  0.00000000E+00  0.00000000E+00
  0.00000000E+00  0.00000000E+00  0.00000000E+00
  0.00000000E+00  0.00000000E+00  0.00000000E+00
  0.00000000E+00  0.00000000E+00  0.00000000E+00
  0.00000000E+00  0.00000000E+00  0.00000000E+00
  0.00000000E+00  0.00000000E+00  0.00000000E+00
  0.00000000E+00  0.00000000E+00  0.00000000E+00
  0.00000000E+00  0.00000000E+00  0.00000000E+00
  0.00000000E+00  0.00000000E+00  0.00000000E+00
  0.00000000E+00  0.00000000E+00  0.00000000E+00
  0.00000000E+00  0.00000000E+00  0.00000000E+00
  0.00000000E+00  0.00000000E+00  0.00000000E+00
  0.00000000E+00  0.00000000E+00  0.00000000E+00
  0.00000000E+00  0.00000000E+00  0.00000000E+00
  0.00000000E+00  0.00000000E+00  0.00000000E+00
  0.00000000E+00  0.00000000E+00  0.00000000E+00
  0.00000000E+00  0.00000000E+00  0.00000000E+00
  0.00000000E+00  0.00000000E+00  0.00000000E+00
  0.00000000E+00  0.00000000E+00  0.00000000E+00
  0.00000000E+00  0.00000000E+00  0.00000000E+00
  0.00000000E+00  0.00000000E+00  0.00000000E+00
  0.00000000E+00  0.00000000E+00  0.00000000E+00
  0.00000000E+00  0.00000000E+00  0.00000000E+00
  0.00000000E+00  0.00000000E+00  0.00000000E+00
  0.00000000E+00  0.00000000E+00  0.00000000E+00
  0.00000000E+00  0.00000000E+00  0.00000000E+00
  0.00000000E+00  0.00000000E+00  0.00000000E+00
  0.00000000E+00  0.00000000E+00  0.00000000E+00
  0.00000000E+00  0.00000000E+00  0.00000000E+00
  0.00000000E+00  0.00000000E+00  0.00000000E+00
  0.00000000E+00  0.00000000E+00  0.00000000E+00
  0.00000000E+00  0.00000000E+00  0.00000000E+00
  0.00000000E+00  0.00000000E+00  0.00000000E+00
  0.00000000E+00  0.00000000E+00  0.00000000E+00
  0.00000000E+00  0.00000000E+00  0.00000000E+00
  0.00000000E+00  0.00000000E+00  0.00000000E+00
  0.00000000E+00  0.00000000E+00  0.00000000E+00
  0.00000000E+00  0.00000000E+00  0.00000000E+00
  0.00000000E+00  0.00000000E+00  0.00000000E+00
  0.00000000E+00  0.00000000E+00  0.00000000E+00
  0.00000000E+00  0.00000000E+00  0.00000000E+00
  0.00000000E+00  0.00000000E+00  0.00000000E+00
  0.00000000E+00  0.00000000E+00  0.00000000E+00
  0.00000000E+00  0.00000000E+00  0.00000000E+00
  0.00000000E+00  0.00000000E+00  0.00000000E+00
  0.00000000E+00  0.00000000E+00  0.00000000E+00
  0.00000000E+00  0.00000000E+00  0.00000000E+00
