Ge Pd  O  C                             
   1.00000000000000     
     9.5857946590241312   -5.5343611267840611    0.0000000000000000
     0.0000000000000000   11.0687222535681222    0.0000000000000000
     0.0000000000000000    0.0000000000000000   16.8364352116616196
   Ge   Pd   O    C 
     8    56     1     1
Selective dynamics
Direct
  0.4160417461022333  0.5832986690750568  0.2515191545470369   T   T   T
  0.6663375048304119  0.8336473038269349  0.2514834443486300   T   T   T
  0.1666501188425222  0.8324076065995146  0.2518714232347146   T   T   T
  0.9172426576341723  0.5816275135863331  0.2526835248843736   T   T   T
  0.1669271387335941  0.3321581656566087  0.2524053195430453   T   T   T
  0.9174341147580235  0.0827416375076866  0.2524444790044300   T   T   T
  0.4172465068861232  0.0829657182138601  0.2518678995410616   T   T   T
  0.6680918416699126  0.3323847084277504  0.2527172329132625   T   T   T
  0.1679427500934015  0.5826011917519134  0.2743085533670657   T   T   T
  0.4167627955989597  0.8328418256791094  0.2738802073869522   T   T   T
  0.6700577109562881  0.5796774629657180  0.2729137250304903   T   T   T
  0.9185653001607673  0.8313071571524674  0.2731298732242526   T   T   T
  0.6666681099538491  0.0814985591832415  0.2744482154124413   T   T   T
  0.9195350382281376  0.3297135043831038  0.2737553271740472   T   T   T
  0.1683268540193620  0.0814556809853329  0.2732018922694848   T   T   T
  0.4184663726780961  0.3310460871987437  0.2731190258111647   T   T   T
  0.3333299999999966  0.6666700000000034  0.1341999999999999   F   F   F
  0.5000000000000000  0.2500000000000000  0.0000000000000000   F   F   F
  0.7500000000000000  0.5000000000000000  0.0000000000000000   F   F   F
  0.8333299999999966  0.4166700000000034  0.1341999999999999   F   F   F
  0.5427371700971920  0.7066159309107346  0.3759572089563108   T   T   T
  0.0833299999999966  0.4166700000000034  0.1341999999999999   F   F   F
  0.0833299999999966  0.6666700000000034  0.1341999999999999   F   F   F
  0.7914079579104802  0.9578618726219232  0.3769363153153546   T   T   T
  0.3333299999999966  0.4166700000000034  0.1341999999999999   F   F   F
  0.0406276492288242  0.7076619063101036  0.3774106227779680   T   T   T
  0.5833300000000037  0.4166700000000034  0.1341999999999999   F   F   F
  0.5833300000000037  0.6666700000000034  0.1341999999999999   F   F   F
  0.2895446871101131  0.9598352747272464  0.3770509798976145   T   T   T
  0.8333299999999966  0.6666700000000034  0.1341999999999999   F   F   F
  0.0000000000000000  0.2500000000000000  0.0000000000000000   F   F   F
  0.2500000000000000  0.5000000000000000  0.0000000000000000   F   F   F
  0.3333299999999966  0.9166700000000034  0.1341999999999999   F   F   F
  0.0415288184769031  0.2079286931734833  0.3789135023682630   T   T   T
  0.5833300000000037  0.9166700000000034  0.1341999999999999   F   F   F
  0.5833300000000037  0.1666700000000034  0.1341999999999999   F   F   F
  0.2915852280498923  0.4580572662591474  0.3769002402440632   T   T   T
  0.8333299999999966  0.1666700000000034  0.1341999999999999   F   F   F
  0.0000000000000000  0.7500000000000000  0.0000000000000000   F   F   F
  0.2500000000000000  0.0000000000000000  0.0000000000000000   F   F   F
  0.3333299999999966  0.1666700000000034  0.1341999999999999   F   F   F
  0.5000000000000000  0.7500000000000000  0.0000000000000000   F   F   F
  0.7500000000000000  0.0000000000000000  0.0000000000000000   F   F   F
  0.8333299999999966  0.9166700000000034  0.1341999999999999   F   F   F
  0.5416246881053763  0.2086477063351529  0.3774215961154697   T   T   T
  0.0833299999999966  0.9166700000000034  0.1341999999999999   F   F   F
  0.0833299999999966  0.1666700000000034  0.1341999999999999   F   F   F
  0.7921508393153437  0.4572876107928847  0.3789192094518264   T   T   T
  0.0403069123027049  0.9584004035120984  0.4132989262020024   T   T   T
  0.7500000000000000  0.2500000000000000  0.0000000000000000   F   F   F
  0.0000000000000000  0.5000000000000000  0.0000000000000000   F   F   F
  0.7910019916457635  0.7080748450804977  0.4128403016968484   T   T   T
  0.5000000000000000  0.5000000000000000  0.0000000000000000   F   F   F
  0.2902655186958026  0.7081326670673881  0.4188623422353110   T   T   T
  0.5409510219356563  0.9590231052167529  0.4193912378598956   T   T   T
  0.2500000000000000  0.2500000000000000  0.0000000000000000   F   F   F
  0.5000000000000000  0.0000000000000000  0.0000000000000000   F   F   F
  0.2909580722493411  0.2090567722149865  0.4133083527432567   T   T   T
  0.5413734167652335  0.4583302684642888  0.4128419297282535   T   T   T
  0.2500000000000000  0.7500000000000000  0.0000000000000000   F   F   F
  0.0411139948904129  0.4578726764964361  0.4135843135425316   T   T   T
  0.7500000000000000  0.7500000000000000  0.0000000000000000   F   F   F
  0.0000000000000000  0.0000000000000000  0.0000000000000000   F   F   F
  0.7915833602933867  0.2083183004198063  0.4137404442281898   T   T   T
  0.3762318673678697  0.8702089737308664  0.5667872082663392   T   T   T
  0.3935435332759183  0.8545191742847875  0.4991677147562522   T   T   T
 
  0.00000000E+00  0.00000000E+00  0.00000000E+00
  0.00000000E+00  0.00000000E+00  0.00000000E+00
  0.00000000E+00  0.00000000E+00  0.00000000E+00
  0.00000000E+00  0.00000000E+00  0.00000000E+00
  0.00000000E+00  0.00000000E+00  0.00000000E+00
  0.00000000E+00  0.00000000E+00  0.00000000E+00
  0.00000000E+00  0.00000000E+00  0.00000000E+00
  0.00000000E+00  0.00000000E+00  0.00000000E+00
  0.00000000E+00  0.00000000E+00  0.00000000E+00
  0.00000000E+00  0.00000000E+00  0.00000000E+00
  0.00000000E+00  0.00000000E+00  0.00000000E+00
  0.00000000E+00  0.00000000E+00  0.00000000E+00
  0.00000000E+00  0.00000000E+00  0.00000000E+00
  0.00000000E+00  0.00000000E+00  0.00000000E+00
  0.00000000E+00  0.00000000E+00  0.00000000E+00
  0.00000000E+00  0.00000000E+00  0.00000000E+00
  0.00000000E+00  0.00000000E+00  0.00000000E+00
  0.00000000E+00  0.00000000E+00  0.00000000E+00
  0.00000000E+00  0.00000000E+00  0.00000000E+00
  0.00000000E+00  0.00000000E+00  0.00000000E+00
  0.00000000E+00  0.00000000E+00  0.00000000E+00
  0.00000000E+00  0.00000000E+00  0.00000000E+00
  0.00000000E+00  0.00000000E+00  0.00000000E+00
  0.00000000E+00  0.00000000E+00  0.00000000E+00
  0.00000000E+00  0.00000000E+00  0.00000000E+00
  0.00000000E+00  0.00000000E+00  0.00000000E+00
  0.00000000E+00  0.00000000E+00  0.00000000E+00
  0.00000000E+00  0.00000000E+00  0.00000000E+00
  0.00000000E+00  0.00000000E+00  0.00000000E+00
  0.00000000E+00  0.00000000E+00  0.00000000E+00
  0.00000000E+00  0.00000000E+00  0.00000000E+00
  0.00000000E+00  0.00000000E+00  0.00000000E+00
  0.00000000E+00  0.00000000E+00  0.00000000E+00
  0.00000000E+00  0.00000000E+00  0.00000000E+00
  0.00000000E+00  0.00000000E+00  0.00000000E+00
  0.00000000E+00  0.00000000E+00  0.00000000E+00
  0.00000000E+00  0.00000000E+00  0.00000000E+00
  0.00000000E+00  0.00000000E+00  0.00000000E+00
  0.00000000E+00  0.00000000E+00  0.00000000E+00
  0.00000000E+00  0.00000000E+00  0.00000000E+00
  0.00000000E+00  0.00000000E+00  0.00000000E+00
  0.00000000E+00  0.00000000E+00  0.00000000E+00
  0.00000000E+00  0.00000000E+00  0.00000000E+00
  0.00000000E+00  0.00000000E+00  0.00000000E+00
  0.00000000E+00  0.00000000E+00  0.00000000E+00
  0.00000000E+00  0.00000000E+00  0.00000000E+00
  0.00000000E+00  0.00000000E+00  0.00000000E+00
  0.00000000E+00  0.00000000E+00  0.00000000E+00
  0.00000000E+00  0.00000000E+00  0.00000000E+00
  0.00000000E+00  0.00000000E+00  0.00000000E+00
  0.00000000E+00  0.00000000E+00  0.00000000E+00
  0.00000000E+00  0.00000000E+00  0.00000000E+00
  0.00000000E+00  0.00000000E+00  0.00000000E+00
  0.00000000E+00  0.00000000E+00  0.00000000E+00
  0.00000000E+00  0.00000000E+00  0.00000000E+00
  0.00000000E+00  0.00000000E+00  0.00000000E+00
  0.00000000E+00  0.00000000E+00  0.00000000E+00
  0.00000000E+00  0.00000000E+00  0.00000000E+00
  0.00000000E+00  0.00000000E+00  0.00000000E+00
  0.00000000E+00  0.00000000E+00  0.00000000E+00
  0.00000000E+00  0.00000000E+00  0.00000000E+00
  0.00000000E+00  0.00000000E+00  0.00000000E+00
  0.00000000E+00  0.00000000E+00  0.00000000E+00
  0.00000000E+00  0.00000000E+00  0.00000000E+00
  0.00000000E+00  0.00000000E+00  0.00000000E+00
  0.00000000E+00  0.00000000E+00  0.00000000E+00
