Ge Pd  O  H                             
    1.000000000000000     
     6.4662409870680282    0.0000000000000000  -11.1998579235861655
    -0.0000000000000078   10.7446126219227072   -7.4665719490574416
     0.0000000000000000    0.0000000000000000   44.7994316943446478
   Ge   Pd   O    H 
    27    54     1     1
Selective dynamics
Direct
  0.9986819877937663  0.0189112566793312  0.1362463748563556   F   F   F
  0.3754222026864582  0.0085371734693283  0.1542723649309536   F   F   F
  0.6912511425835319  0.9912390024005049  0.1373426523484369   F   F   F
  0.3661243055420584  0.3278612327305481  0.1452755637375844   F   F   F
  0.6431379259921499  0.3280930227006920  0.1305564734115805   F   F   F
  0.0419976185760760  0.3493510590905160  0.1576540630428624   F   F   F
  0.7230941823290209  0.6718484342478703  0.1525912778810650   F   F   F
  0.3473296029378474  0.6675097687697757  0.1414933354439754   F   F   F
  0.0363690360014672  0.6962670107744628  0.1496489846305309   F   F   F
  0.0000000309739860  0.0000000124750699  0.3025599617743637   F   F   F
  0.3333334393785918  0.0225227936222225  0.3063137721260034   F   F   F
  0.6666666824935277  0.9774772212611325  0.2988061478680848   F   F   F
  0.3334674268630664  0.3216103654779872  0.3019519356169837   F   F   F
  0.6587258242515546  0.3216104325336602  0.2979815002196204   F   F   F
  0.0078067045933778  0.3216103544233135  0.3018848837792163   F   F   F
  0.6665326021476474  0.6783895979610222  0.3031679512621395   F   F   F
  0.3412740763246163  0.6783895806653391  0.3071383710272428   F   F   F
  0.9921933186793481  0.6783896052699419  0.3032349991824290   F   F   F
  0.0012496167667315  0.9811253039829716  0.4688812738988299   T   T   T
  0.3105958398662942  0.0086399873923376  0.4679040268028034   T   T   T
  0.6209805758500502  0.9930137043766127  0.4498348933499969   T   T   T
  0.2831651042532035  0.3364411598710141  0.4581862711311935   T   T   T
  0.6536265121260125  0.3336329127813315  0.4637237796627074   T   T   T
  0.9647154682560054  0.3042280806701699  0.4558578188918790   T   T   T
  0.6351070132037735  0.6725661892939203  0.4601961272857832   T   T   T
  0.3562360308298159  0.6726076357297379  0.4741270586556084   T   T   T
  0.9583474968752496  0.6504440012337904  0.4474598651953611   T   T   T
  0.7276827443297478  0.0982142108195916  0.1165689295578431   F   F   F
  0.2555247316409464  0.9035697206549855  0.1513540972182241   F   F   F
  0.5951731628840591  0.5634656741880946  0.1484730735436273   F   F   F
  0.3821452174138003  0.4318293393392452  0.1180047653230147   F   F   F
  0.9341714775047620  0.0767437950226295  0.2478993871446562   F   F   F
  0.7225365781991897  0.0789624364657513  0.2806305308362056   F   F   F
  0.3444562059757033  0.0697490665524398  0.2540737692335497   F   F   F
  0.0961284118379595  0.1900431747859344  0.2555920416197992   F   F   F
  0.3030676730517285  0.1720819867369485  0.2011043893615891   F   F   F
  0.5581352183520778  0.1721571900674874  0.1993968895342562   F   F   F
  0.8746680592942937  0.8024307858362150  0.1719304353480879   F   F   F
  0.6605350190290480  0.8094724191120122  0.2274279649769611   F   F   F
  0.4017143458032990  0.8033527466090433  0.2232317603600222   F   F   F
  0.6713625274037796  0.6011773191666236  0.2382313494647619   F   F   F
  0.3271354518974405  0.3733202501440900  0.1971193386306425   F   F   F
  0.6685251371357808  0.2421735047722748  0.1774084766958950   F   F   F
  0.3473333324878567  0.7714803856504986  0.2680283677793298   F   F   F
  0.9999884884874461  0.2550168333515899  0.1820897980579304   F   F   F
  0.0288099926673624  0.7569882697592902  0.2712118603983384   F   F   F
  0.9602005659072788  0.5042974566286489  0.2036675541970325   F   F   F
  0.6673629740838010  0.9051041246006406  0.1858435654228785   F   F   F
  0.2774634214001139  0.9210375866799723  0.3244893527393913   F   F   F
  0.0425346201872756  0.9269363835548745  0.1851047279249798   F   F   F
  0.3167509562559019  0.5599540885031260  0.1815963046199656   F   F   F
  0.6183186150188433  0.5678599407321627  0.3212463297695365   F   F   F
  0.0956159697262038  0.5753413484135876  0.1928823391096230   F   F   F
  0.7070206960756735  0.4271540309991479  0.2671148812021187   F   F   F
  0.3816810331746652  0.4321400290056516  0.2838734761363000   F   F   F
  0.9338276596562878  0.4376285700653995  0.2474366908030845   F   F   F
  0.9572719089221380  0.0735609076348069  0.4202172743426260   F   F   F
  0.7489310174939946  0.0991306452283579  0.4555231958839881   T   T   T
  0.3320923161408373  0.0951952445440369  0.4191845226786981   F   F   F
  0.1247315053276239  0.1973661355978535  0.4330499954737590   F   F   F
  0.3390952577849475  0.1906470538768374  0.3776155640155068   F   F   F
  0.5981498819430442  0.1965716346108337  0.3818996965075030   F   F   F
  0.9037176256380732  0.8100255343179796  0.3494882298247930   F   F   F
  0.6971240690242908  0.8283809889296307  0.4042238922688313   F   F   F
  0.4417311374180457  0.8277546121035826  0.4056878858479038   F   F   F
  0.6728769022632477  0.6265264722713368  0.4080045865835515   F   F   F
  0.3281645020104804  0.3990153235417537  0.3667952152569853   F   F   F
  0.6533128286001499  0.2285153497756625  0.3373282453287203   F   F   F
  0.3313845918947962  0.7576456197932870  0.4276329720690484   F   F   F
  0.9706909921148679  0.2428406302539656  0.3336882171885094   F   F   F
  0.9999545095678357  0.7450367668496938  0.4230220295394886   F   F   F
  0.0392699275901265  0.4955841002430503  0.4012262299766221   F   F   F
  0.6557481250857577  0.9302742162931565  0.3511465381715837   F   F   F
  0.2717009004465545  0.9021628147498135  0.4882877773661224   T   T   T
  0.0657232845508986  0.9230367318944630  0.3571399083208036   F   F   F
  0.2929611728759340  0.5727456266902280  0.3379007106298886   F   F   F
  0.6183756642255329  0.5687938742524685  0.4871023174074550   T   T   T
  0.0659405194397422  0.5625597415320271  0.3577144740816109   F   F   F
  0.6832976356463334  0.4399513030919096  0.4235779178904338   F   F   F
  0.3985989297909804  0.4356819262169448  0.4537240818846225   T   T   T
  0.9049974292203657  0.4246090893856902  0.4123265350295569   F   F   F
  0.5102378361569839  0.4193652079505326  0.5446006494010484   T   T   T
  0.6252131539775043  0.3617554438896867  0.5666875550851859   T   T   T
 
  0.00000000E+00  0.00000000E+00  0.00000000E+00
  0.00000000E+00  0.00000000E+00  0.00000000E+00
  0.00000000E+00  0.00000000E+00  0.00000000E+00
  0.00000000E+00  0.00000000E+00  0.00000000E+00
  0.00000000E+00  0.00000000E+00  0.00000000E+00
  0.00000000E+00  0.00000000E+00  0.00000000E+00
  0.00000000E+00  0.00000000E+00  0.00000000E+00
  0.00000000E+00  0.00000000E+00  0.00000000E+00
  0.00000000E+00  0.00000000E+00  0.00000000E+00
  0.00000000E+00  0.00000000E+00  0.00000000E+00
  0.00000000E+00  0.00000000E+00  0.00000000E+00
  0.00000000E+00  0.00000000E+00  0.00000000E+00
  0.00000000E+00  0.00000000E+00  0.00000000E+00
  0.00000000E+00  0.00000000E+00  0.00000000E+00
  0.00000000E+00  0.00000000E+00  0.00000000E+00
  0.00000000E+00  0.00000000E+00  0.00000000E+00
  0.00000000E+00  0.00000000E+00  0.00000000E+00
  0.00000000E+00  0.00000000E+00  0.00000000E+00
  0.00000000E+00  0.00000000E+00  0.00000000E+00
  0.00000000E+00  0.00000000E+00  0.00000000E+00
  0.00000000E+00  0.00000000E+00  0.00000000E+00
  0.00000000E+00  0.00000000E+00  0.00000000E+00
  0.00000000E+00  0.00000000E+00  0.00000000E+00
  0.00000000E+00  0.00000000E+00  0.00000000E+00
  0.00000000E+00  0.00000000E+00  0.00000000E+00
  0.00000000E+00  0.00000000E+00  0.00000000E+00
  0.00000000E+00  0.00000000E+00  0.00000000E+00
  0.00000000E+00  0.00000000E+00  0.00000000E+00
  0.00000000E+00  0.00000000E+00  0.00000000E+00
  0.00000000E+00  0.00000000E+00  0.00000000E+00
  0.00000000E+00  0.00000000E+00  0.00000000E+00
  0.00000000E+00  0.00000000E+00  0.00000000E+00
  0.00000000E+00  0.00000000E+00  0.00000000E+00
  0.00000000E+00  0.00000000E+00  0.00000000E+00
  0.00000000E+00  0.00000000E+00  0.00000000E+00
  0.00000000E+00  0.00000000E+00  0.00000000E+00
  0.00000000E+00  0.00000000E+00  0.00000000E+00
  0.00000000E+00  0.00000000E+00  0.00000000E+00
  0.00000000E+00  0.00000000E+00  0.00000000E+00
  0.00000000E+00  0.00000000E+00  0.00000000E+00
  0.00000000E+00  0.00000000E+00  0.00000000E+00
  0.00000000E+00  0.00000000E+00  0.00000000E+00
  0.00000000E+00  0.00000000E+00  0.00000000E+00
  0.00000000E+00  0.00000000E+00  0.00000000E+00
  0.00000000E+00  0.00000000E+00  0.00000000E+00
  0.00000000E+00  0.00000000E+00  0.00000000E+00
  0.00000000E+00  0.00000000E+00  0.00000000E+00
  0.00000000E+00  0.00000000E+00  0.00000000E+00
  0.00000000E+00  0.00000000E+00  0.00000000E+00
  0.00000000E+00  0.00000000E+00  0.00000000E+00
  0.00000000E+00  0.00000000E+00  0.00000000E+00
  0.00000000E+00  0.00000000E+00  0.00000000E+00
  0.00000000E+00  0.00000000E+00  0.00000000E+00
  0.00000000E+00  0.00000000E+00  0.00000000E+00
  0.00000000E+00  0.00000000E+00  0.00000000E+00
  0.00000000E+00  0.00000000E+00  0.00000000E+00
  0.00000000E+00  0.00000000E+00  0.00000000E+00
  0.00000000E+00  0.00000000E+00  0.00000000E+00
  0.00000000E+00  0.00000000E+00  0.00000000E+00
  0.00000000E+00  0.00000000E+00  0.00000000E+00
  0.00000000E+00  0.00000000E+00  0.00000000E+00
  0.00000000E+00  0.00000000E+00  0.00000000E+00
  0.00000000E+00  0.00000000E+00  0.00000000E+00
  0.00000000E+00  0.00000000E+00  0.00000000E+00
  0.00000000E+00  0.00000000E+00  0.00000000E+00
  0.00000000E+00  0.00000000E+00  0.00000000E+00
  0.00000000E+00  0.00000000E+00  0.00000000E+00
  0.00000000E+00  0.00000000E+00  0.00000000E+00
  0.00000000E+00  0.00000000E+00  0.00000000E+00
  0.00000000E+00  0.00000000E+00  0.00000000E+00
  0.00000000E+00  0.00000000E+00  0.00000000E+00
  0.00000000E+00  0.00000000E+00  0.00000000E+00
  0.00000000E+00  0.00000000E+00  0.00000000E+00
  0.00000000E+00  0.00000000E+00  0.00000000E+00
  0.00000000E+00  0.00000000E+00  0.00000000E+00
  0.00000000E+00  0.00000000E+00  0.00000000E+00
  0.00000000E+00  0.00000000E+00  0.00000000E+00
  0.00000000E+00  0.00000000E+00  0.00000000E+00
  0.00000000E+00  0.00000000E+00  0.00000000E+00
  0.00000000E+00  0.00000000E+00  0.00000000E+00
  0.00000000E+00  0.00000000E+00  0.00000000E+00
  0.00000000E+00  0.00000000E+00  0.00000000E+00
  0.00000000E+00  0.00000000E+00  0.00000000E+00
