Pd Ge  C  O                             
   1.00000000000000     
     9.5302631584862301   -5.5023000000000000    0.0000000000000000
     0.0000000000000000   11.0045999999999999    0.0000000000000000
     0.0000000000000000    0.0000000000000000   16.7389000000000010
   Pd   Ge   C    O 
    64     0     1     1
Selective dynamics
Direct
  0.3333299999999966  0.6666700000000034  0.1341999999999999   F   F   F
  0.5000000000000000  0.2500000000000000  0.0000000000000000   F   F   F
  0.1661851067556959  0.5839325512350495  0.2724350260441353   T   T   T
  0.4158483088257577  0.5840870653323859  0.2727132534401561   T   T   T
  0.7500000000000000  0.5000000000000000  0.0000000000000000   F   F   F
  0.4159251418329747  0.8335564833576835  0.2723114847761914   T   T   T
  0.6646429004705892  0.8329208108845487  0.2727324177891021   T   T   T
  0.8333299999999966  0.4166700000000034  0.1341999999999999   F   F   F
  0.4985496499568239  0.7512870154782901  0.4158388768284771   T   T   T
  0.0833299999999966  0.4166700000000034  0.1341999999999999   F   F   F
  0.0833299999999966  0.6666700000000034  0.1341999999999999   F   F   F
  0.7482767945513386  0.0005763644489252  0.4093971681711008   T   T   T
  0.1664698775030502  0.8335158032637719  0.2720841352083263   T   T   T
  0.3333299999999966  0.4166700000000034  0.1341999999999999   F   F   F
 -0.0023183626117238  0.7511092224093985  0.4088787581453059   T   T   T
  0.5833300000000037  0.4166700000000034  0.1341999999999999   F   F   F
  0.5833300000000037  0.6666700000000034  0.1341999999999999   F   F   F
  0.2483899974419355  0.0015588127538828  0.4088999527723177   T   T   T
  0.8333299999999966  0.6666700000000034  0.1341999999999999   F   F   F
  0.0000000000000000  0.2500000000000000  0.0000000000000000   F   F   F
  0.6660475739593087  0.5838570875820673  0.2710448596024604   T   T   T
  0.9158464971463184  0.5837574259066117  0.2707788015161874   T   T   T
  0.2500000000000000  0.5000000000000000  0.0000000000000000   F   F   F
  0.9157500643061962  0.8337195382551399  0.2708621058062453   T   T   T
  0.1666632252644022  0.3349756893272000  0.2726360054179843   T   T   T
  0.3333299999999966  0.9166700000000034  0.1341999999999999   F   F   F
 -0.0016153413895608  0.2507000399063386  0.4090888773309607   T   T   T
  0.5833300000000037  0.9166700000000034  0.1341999999999999   F   F   F
  0.5833300000000037  0.1666700000000034  0.1341999999999999   F   F   F
  0.2470189281078731  0.4992289249041887  0.4152228379029240   T   T   T
  0.8333299999999966  0.1666700000000034  0.1341999999999999   F   F   F
  0.0000000000000000  0.7500000000000000  0.0000000000000000   F   F   F
  0.6661886565433136  0.0837898659351530  0.2708892605777214   T   T   T
  0.9158011662361604  0.0837300324764898  0.2709721272320688   T   T   T
  0.2500000000000000  0.0000000000000000  0.0000000000000000   F   F   F
  0.9160491974562163  0.3337440379032676  0.2708700573984354   T   T   T
  0.3333299999999966  0.1666700000000034  0.1341999999999999   F   F   F
  0.5000000000000000  0.7500000000000000  0.0000000000000000   F   F   F
  0.1660762208257172  0.0839505526820642  0.2708112910703641   T   T   T
  0.4161883081658166  0.0839675063411476  0.2707807377160804   T   T   T
  0.7500000000000000  0.0000000000000000  0.0000000000000000   F   F   F
  0.4160831941997046  0.3339411781667393  0.2710482282542491   T   T   T
  0.6660629371744399  0.3339777665570149  0.2710953444081686   T   T   T
  0.8333299999999966  0.9166700000000034  0.1341999999999999   F   F   F
  0.4984226386976104  0.2508086851553767  0.4090872103017908   T   T   T
  0.0833299999999966  0.9166700000000034  0.1341999999999999   F   F   F
  0.0833299999999966  0.1666700000000034  0.1341999999999999   F   F   F
  0.7483429275108915  0.5007834048658377  0.4092214461877128   T   T   T
 -0.0016554014588870  0.0008633359755004  0.4090622487886226   T   T   T
  0.7500000000000000  0.2500000000000000  0.0000000000000000   F   F   F
  0.0000000000000000  0.5000000000000000  0.0000000000000000   F   F   F
  0.7479617489042075  0.7508854098195850  0.4095181480910641   T   T   T
  0.5000000000000000  0.5000000000000000  0.0000000000000000   F   F   F
  0.2459888793553580  0.7529180137982479  0.4134747034574720   T   T   T
  0.5003846400304021  0.0047262994413513  0.4087731657462349   T   T   T
  0.2500000000000000  0.2500000000000000  0.0000000000000000   F   F   F
  0.5000000000000000  0.0000000000000000  0.0000000000000000   F   F   F
  0.2485126992066897  0.2512506884866165  0.4093056688353092   T   T   T
  0.4999394219982153  0.4993947224406258  0.4089691608034632   T   T   T
  0.2500000000000000  0.7500000000000000  0.0000000000000000   F   F   F
 -0.0055831017680626  0.4989784737423433  0.4086027594281509   T   T   T
  0.7500000000000000  0.7500000000000000  0.0000000000000000   F   F   F
  0.0000000000000000  0.0000000000000000  0.0000000000000000   F   F   F
  0.7485109188935789  0.2506261581106434  0.4090887939817591   T   T   T
  0.3237316956950593  0.6690103924948190  0.4921919543068480   F   F   T
  0.3237316956950593  0.6690103924948190  0.5634219380047595   F   F   T
 
  0.00000000E+00  0.00000000E+00  0.00000000E+00
  0.00000000E+00  0.00000000E+00  0.00000000E+00
  0.00000000E+00  0.00000000E+00  0.00000000E+00
  0.00000000E+00  0.00000000E+00  0.00000000E+00
  0.00000000E+00  0.00000000E+00  0.00000000E+00
  0.00000000E+00  0.00000000E+00  0.00000000E+00
  0.00000000E+00  0.00000000E+00  0.00000000E+00
  0.00000000E+00  0.00000000E+00  0.00000000E+00
  0.00000000E+00  0.00000000E+00  0.00000000E+00
  0.00000000E+00  0.00000000E+00  0.00000000E+00
  0.00000000E+00  0.00000000E+00  0.00000000E+00
  0.00000000E+00  0.00000000E+00  0.00000000E+00
  0.00000000E+00  0.00000000E+00  0.00000000E+00
  0.00000000E+00  0.00000000E+00  0.00000000E+00
  0.00000000E+00  0.00000000E+00  0.00000000E+00
  0.00000000E+00  0.00000000E+00  0.00000000E+00
  0.00000000E+00  0.00000000E+00  0.00000000E+00
  0.00000000E+00  0.00000000E+00  0.00000000E+00
  0.00000000E+00  0.00000000E+00  0.00000000E+00
  0.00000000E+00  0.00000000E+00  0.00000000E+00
  0.00000000E+00  0.00000000E+00  0.00000000E+00
  0.00000000E+00  0.00000000E+00  0.00000000E+00
  0.00000000E+00  0.00000000E+00  0.00000000E+00
  0.00000000E+00  0.00000000E+00  0.00000000E+00
  0.00000000E+00  0.00000000E+00  0.00000000E+00
  0.00000000E+00  0.00000000E+00  0.00000000E+00
  0.00000000E+00  0.00000000E+00  0.00000000E+00
  0.00000000E+00  0.00000000E+00  0.00000000E+00
  0.00000000E+00  0.00000000E+00  0.00000000E+00
  0.00000000E+00  0.00000000E+00  0.00000000E+00
  0.00000000E+00  0.00000000E+00  0.00000000E+00
  0.00000000E+00  0.00000000E+00  0.00000000E+00
  0.00000000E+00  0.00000000E+00  0.00000000E+00
  0.00000000E+00  0.00000000E+00  0.00000000E+00
  0.00000000E+00  0.00000000E+00  0.00000000E+00
  0.00000000E+00  0.00000000E+00  0.00000000E+00
  0.00000000E+00  0.00000000E+00  0.00000000E+00
  0.00000000E+00  0.00000000E+00  0.00000000E+00
  0.00000000E+00  0.00000000E+00  0.00000000E+00
  0.00000000E+00  0.00000000E+00  0.00000000E+00
  0.00000000E+00  0.00000000E+00  0.00000000E+00
  0.00000000E+00  0.00000000E+00  0.00000000E+00
  0.00000000E+00  0.00000000E+00  0.00000000E+00
  0.00000000E+00  0.00000000E+00  0.00000000E+00
  0.00000000E+00  0.00000000E+00  0.00000000E+00
  0.00000000E+00  0.00000000E+00  0.00000000E+00
  0.00000000E+00  0.00000000E+00  0.00000000E+00
  0.00000000E+00  0.00000000E+00  0.00000000E+00
  0.00000000E+00  0.00000000E+00  0.00000000E+00
  0.00000000E+00  0.00000000E+00  0.00000000E+00
  0.00000000E+00  0.00000000E+00  0.00000000E+00
  0.00000000E+00  0.00000000E+00  0.00000000E+00
  0.00000000E+00  0.00000000E+00  0.00000000E+00
  0.00000000E+00  0.00000000E+00  0.00000000E+00
  0.00000000E+00  0.00000000E+00  0.00000000E+00
  0.00000000E+00  0.00000000E+00  0.00000000E+00
  0.00000000E+00  0.00000000E+00  0.00000000E+00
  0.00000000E+00  0.00000000E+00  0.00000000E+00
  0.00000000E+00  0.00000000E+00  0.00000000E+00
  0.00000000E+00  0.00000000E+00  0.00000000E+00
  0.00000000E+00  0.00000000E+00  0.00000000E+00
  0.00000000E+00  0.00000000E+00  0.00000000E+00
  0.00000000E+00  0.00000000E+00  0.00000000E+00
  0.00000000E+00  0.00000000E+00  0.00000000E+00
  0.00000000E+00  0.00000000E+00  0.00000000E+00
  0.00000000E+00  0.00000000E+00  0.00000000E+00
