Ge Pd  O C  H                           
   1.00000000000000     
     9.5857946590241312   -5.5343611267840611    0.0000000000000000
     0.0000000000000000   11.0687222535681222    0.0000000000000000
     0.0000000000000000    0.0000000000000000   16.8364352116616196
   Ge   Pd   O    C    H 
     8    56     1     0     1
Selective dynamics
Direct
  0.4170712157435065  0.5837733416569129  0.2511760163718799   T   T   T
  0.6687491336449497  0.8323037626677682  0.2523725460702084   T   T   T
  0.1689331368192647  0.8330078456813190  0.2514275008206536   T   T   T
  0.9170465904094497  0.5812117579627019  0.2514526082722681   T   T   T
  0.1663660471918786  0.3329770001680581  0.2512048954635763   T   T   T
  0.9177176574174682  0.0812290181789446  0.2523885319219669   T   T   T
  0.4185311827401327  0.0826354787457464  0.2524314464954539   T   T   T
  0.6674061052585665  0.3315328345440027  0.2524307560451018   T   T   T
  0.1684913255752664  0.5814218764873339  0.2729933922964277   T   T   T
  0.4191297802549679  0.8287421681137339  0.2757887004605898   T   T   T
  0.6719994988680605  0.5786221095070331  0.2729814117679082   T   T   T
  0.9183412099471673  0.8315275601547087  0.2730891858919668   T   T   T
  0.6710934046159475  0.0788311410724438  0.2733598506871598   T   T   T
  0.9214496916357078  0.3310668103130662  0.2757138463755560   T   T   T
  0.1713281143212687  0.0779489480654616  0.2729461433182601   T   T   T
  0.4223795626987511  0.3275877753067911  0.2726182289709264   T   T   T
  0.3333299999999966  0.6666700000000034  0.1341999999999999   F   F   F
  0.5000000000000000  0.2500000000000000  0.0000000000000000   F   F   F
  0.7500000000000000  0.5000000000000000  0.0000000000000000   F   F   F
  0.8333299999999966  0.4166700000000034  0.1341999999999999   F   F   F
  0.5464877446495016  0.7047251753991114  0.3764983457362866   T   T   T
  0.0833299999999966  0.4166700000000034  0.1341999999999999   F   F   F
  0.0833299999999966  0.6666700000000034  0.1341999999999999   F   F   F
  0.7952630228320796  0.9547590456688837  0.3791150402664253   T   T   T
  0.3333299999999966  0.4166700000000034  0.1341999999999999   F   F   F
  0.0425349100832206  0.7074125977076302  0.3747383882648544   T   T   T
  0.5833300000000037  0.4166700000000034  0.1341999999999999   F   F   F
  0.5833300000000037  0.6666700000000034  0.1341999999999999   F   F   F
  0.2957214180966017  0.9554591902134777  0.3770991789163503   T   T   T
  0.8333299999999966  0.6666700000000034  0.1341999999999999   F   F   F
  0.0000000000000000  0.2500000000000000  0.0000000000000000   F   F   F
  0.2500000000000000  0.5000000000000000  0.0000000000000000   F   F   F
  0.3333299999999966  0.9166700000000034  0.1341999999999999   F   F   F
  0.0453594916555385  0.2034919466583921  0.3764786037356247   T   T   T
  0.5833300000000037  0.9166700000000034  0.1341999999999999   F   F   F
  0.5833300000000037  0.1666700000000034  0.1341999999999999   F   F   F
  0.2976981294371938  0.4523385744720855  0.3740908283048178   T   T   T
  0.8333299999999966  0.1666700000000034  0.1341999999999999   F   F   F
  0.0000000000000000  0.7500000000000000  0.0000000000000000   F   F   F
  0.2500000000000000  0.0000000000000000  0.0000000000000000   F   F   F
  0.3333299999999966  0.1666700000000034  0.1341999999999999   F   F   F
  0.5000000000000000  0.7500000000000000  0.0000000000000000   F   F   F
  0.7500000000000000  0.0000000000000000  0.0000000000000000   F   F   F
  0.8333299999999966  0.9166700000000034  0.1341999999999999   F   F   F
  0.5461853306807560  0.2038231201055827  0.3785824318319055   T   T   T
  0.0833299999999966  0.9166700000000034  0.1341999999999999   F   F   F
  0.0833299999999966  0.1666700000000034  0.1341999999999999   F   F   F
  0.7946147548089642  0.4543404703141639  0.3770960790924914   T   T   T
  0.0446896018082198  0.9555837951418422  0.4130070841439387   T   T   T
  0.7500000000000000  0.2500000000000000  0.0000000000000000   F   F   F
  0.0000000000000000  0.5000000000000000  0.0000000000000000   F   F   F
  0.7943521356925521  0.7052490034467142  0.4130628177064237   T   T   T
  0.5000000000000000  0.5000000000000000  0.0000000000000000   F   F   F
  0.2969834766878423  0.7068150725421075  0.4151970913723689   T   T   T
  0.5457131319688946  0.9550167901608925  0.4135262001276883   T   T   T
  0.2500000000000000  0.2500000000000000  0.0000000000000000   F   F   F
  0.5000000000000000  0.0000000000000000  0.0000000000000000   F   F   F
  0.2959747695938280  0.2044106288871615  0.4127706363874776   T   T   T
  0.5455525435904952  0.4540088845339996  0.4128639671530058   T   T   T
  0.2500000000000000  0.7500000000000000  0.0000000000000000   F   F   F
  0.0432615105029397  0.4530239905800578  0.4151517406095186   T   T   T
  0.7500000000000000  0.7500000000000000  0.0000000000000000   F   F   F
  0.0000000000000000  0.0000000000000000  0.0000000000000000   F   F   F
  0.7950210591479093  0.2043447248217065  0.4134833117218150   T   T   T
  0.1722755170525321  0.5776928503110211  0.5082191422945957   T   T   T
  0.1262374253837606  0.6237999884668441  0.5331862535814239   T   T   T
 
  0.00000000E+00  0.00000000E+00  0.00000000E+00
  0.00000000E+00  0.00000000E+00  0.00000000E+00
  0.00000000E+00  0.00000000E+00  0.00000000E+00
  0.00000000E+00  0.00000000E+00  0.00000000E+00
  0.00000000E+00  0.00000000E+00  0.00000000E+00
  0.00000000E+00  0.00000000E+00  0.00000000E+00
  0.00000000E+00  0.00000000E+00  0.00000000E+00
  0.00000000E+00  0.00000000E+00  0.00000000E+00
  0.00000000E+00  0.00000000E+00  0.00000000E+00
  0.00000000E+00  0.00000000E+00  0.00000000E+00
  0.00000000E+00  0.00000000E+00  0.00000000E+00
  0.00000000E+00  0.00000000E+00  0.00000000E+00
  0.00000000E+00  0.00000000E+00  0.00000000E+00
  0.00000000E+00  0.00000000E+00  0.00000000E+00
  0.00000000E+00  0.00000000E+00  0.00000000E+00
  0.00000000E+00  0.00000000E+00  0.00000000E+00
  0.00000000E+00  0.00000000E+00  0.00000000E+00
  0.00000000E+00  0.00000000E+00  0.00000000E+00
  0.00000000E+00  0.00000000E+00  0.00000000E+00
  0.00000000E+00  0.00000000E+00  0.00000000E+00
  0.00000000E+00  0.00000000E+00  0.00000000E+00
  0.00000000E+00  0.00000000E+00  0.00000000E+00
  0.00000000E+00  0.00000000E+00  0.00000000E+00
  0.00000000E+00  0.00000000E+00  0.00000000E+00
  0.00000000E+00  0.00000000E+00  0.00000000E+00
  0.00000000E+00  0.00000000E+00  0.00000000E+00
  0.00000000E+00  0.00000000E+00  0.00000000E+00
  0.00000000E+00  0.00000000E+00  0.00000000E+00
  0.00000000E+00  0.00000000E+00  0.00000000E+00
  0.00000000E+00  0.00000000E+00  0.00000000E+00
  0.00000000E+00  0.00000000E+00  0.00000000E+00
  0.00000000E+00  0.00000000E+00  0.00000000E+00
  0.00000000E+00  0.00000000E+00  0.00000000E+00
  0.00000000E+00  0.00000000E+00  0.00000000E+00
  0.00000000E+00  0.00000000E+00  0.00000000E+00
  0.00000000E+00  0.00000000E+00  0.00000000E+00
  0.00000000E+00  0.00000000E+00  0.00000000E+00
  0.00000000E+00  0.00000000E+00  0.00000000E+00
  0.00000000E+00  0.00000000E+00  0.00000000E+00
  0.00000000E+00  0.00000000E+00  0.00000000E+00
  0.00000000E+00  0.00000000E+00  0.00000000E+00
  0.00000000E+00  0.00000000E+00  0.00000000E+00
  0.00000000E+00  0.00000000E+00  0.00000000E+00
  0.00000000E+00  0.00000000E+00  0.00000000E+00
  0.00000000E+00  0.00000000E+00  0.00000000E+00
  0.00000000E+00  0.00000000E+00  0.00000000E+00
  0.00000000E+00  0.00000000E+00  0.00000000E+00
  0.00000000E+00  0.00000000E+00  0.00000000E+00
  0.00000000E+00  0.00000000E+00  0.00000000E+00
  0.00000000E+00  0.00000000E+00  0.00000000E+00
  0.00000000E+00  0.00000000E+00  0.00000000E+00
  0.00000000E+00  0.00000000E+00  0.00000000E+00
  0.00000000E+00  0.00000000E+00  0.00000000E+00
  0.00000000E+00  0.00000000E+00  0.00000000E+00
  0.00000000E+00  0.00000000E+00  0.00000000E+00
  0.00000000E+00  0.00000000E+00  0.00000000E+00
  0.00000000E+00  0.00000000E+00  0.00000000E+00
  0.00000000E+00  0.00000000E+00  0.00000000E+00
  0.00000000E+00  0.00000000E+00  0.00000000E+00
  0.00000000E+00  0.00000000E+00  0.00000000E+00
  0.00000000E+00  0.00000000E+00  0.00000000E+00
  0.00000000E+00  0.00000000E+00  0.00000000E+00
  0.00000000E+00  0.00000000E+00  0.00000000E+00
  0.00000000E+00  0.00000000E+00  0.00000000E+00
  0.00000000E+00  0.00000000E+00  0.00000000E+00
  0.00000000E+00  0.00000000E+00  0.00000000E+00
