Pd  O  H                                
   1.00000000000000     
     9.5302631584862301   -5.5023000000000000    0.0000000000000000
     0.0000000000000000   11.0045999999999999    0.0000000000000000
     0.0000000000000000    0.0000000000000000   16.7389000000000010
   Pd   Ge   C    O    H 
    64     0     0     1     1
Selective dynamics
Direct
  0.3333299999999966  0.6666700000000034  0.1341999999999999   F   F   F
  0.5000000000000000  0.2500000000000000  0.0000000000000000   F   F   F
  0.1658610704620642  0.5841406174056658  0.2726037805215782   T   T   T
  0.4159742953321484  0.5839776960431919  0.2707277445561687   T   T   T
  0.7500000000000000  0.5000000000000000  0.0000000000000000   F   F   F
  0.4152414339870063  0.8337734454003041  0.2709798926297182   T   T   T
  0.6661403255752418  0.8337997027960498  0.2708803459873224   T   T   T
  0.8333299999999966  0.4166700000000034  0.1341999999999999   F   F   F
  0.4996654981923712  0.7547948964112265  0.4079960014727035   T   T   T
  0.0833299999999966  0.4166700000000034  0.1341999999999999   F   F   F
  0.0833299999999966  0.6666700000000034  0.1341999999999999   F   F   F
  0.7482426301561773  0.0018400756138703  0.4090535026170770   T   T   T
  0.1657105176708313  0.8347596093832621  0.2711552998027145   T   T   T
  0.3333299999999966  0.4166700000000034  0.1341999999999999   F   F   F
  0.9978953466614726  0.7522352101925236  0.4097652733621544   T   T   T
  0.5833300000000037  0.4166700000000034  0.1341999999999999   F   F   F
  0.5833300000000037  0.6666700000000034  0.1341999999999999   F   F   F
  0.2483659207742335  0.0006157559514293  0.4098765116212988   T   T   T
  0.8333299999999966  0.6666700000000034  0.1341999999999999   F   F   F
  0.0000000000000000  0.2500000000000000  0.0000000000000000   F   F   F
  0.6636609512956966  0.5827446185828933  0.2735694993911721   T   T   T
  0.9152527631311500  0.5842889481488243  0.2711703116888202   T   T   T
  0.2500000000000000  0.5000000000000000  0.0000000000000000   F   F   F
  0.9158313535444549  0.8342036266107016  0.2710661382153035   T   T   T
  0.1660412532853712  0.3340294336681140  0.2707642982208966   T   T   T
  0.3333299999999966  0.9166700000000034  0.1341999999999999   F   F   F
  0.9952412896000880  0.2504231955344025  0.4080110727094777   T   T   T
  0.5833300000000037  0.9166700000000034  0.1341999999999999   F   F   F
  0.5833300000000037  0.1666700000000034  0.1341999999999999   F   F   F
  0.2406082584496261  0.5094934959324391  0.4064269479649525   T   T   T
  0.8333299999999966  0.1666700000000034  0.1341999999999999   F   F   F
  0.0000000000000000  0.7500000000000000  0.0000000000000000   F   F   F
  0.6662877035159980  0.0837102708322419  0.2708143929661091   T   T   T
  0.9161880443162502  0.0838735147298664  0.2708700693032000   T   T   T
  0.2500000000000000  0.0000000000000000  0.0000000000000000   F   F   F
  0.9162243565742401  0.3347405788893454  0.2709787302039217   T   T   T
  0.3333299999999966  0.1666700000000034  0.1341999999999999   F   F   F
  0.5000000000000000  0.7500000000000000  0.0000000000000000   F   F   F
  0.1672647003063759  0.0863851504073665  0.2735752854066362   T   T   T
  0.4161031425925543  0.0840002756340468  0.2709115867949592   T   T   T
  0.7500000000000000  0.0000000000000000  0.0000000000000000   F   F   F
  0.4158208684584537  0.3341781605561636  0.2718794696562838   T   T   T
  0.6660053563161412  0.3338994229411938  0.2709253452949412   T   T   T
  0.8333299999999966  0.9166700000000034  0.1341999999999999   F   F   F
  0.4992002430239779  0.2508855985800551  0.4085444604136441   T   T   T
  0.0833299999999966  0.9166700000000034  0.1341999999999999   F   F   F
  0.0833299999999966  0.1666700000000034  0.1341999999999999   F   F   F
  0.7495344778532598  0.5017364452424076  0.4098935546847997   T   T   T
  0.9962855959225152  0.9992323390922166  0.4098410056385973   T   T   T
  0.7500000000000000  0.2500000000000000  0.0000000000000000   F   F   F
  0.0000000000000000  0.5000000000000000  0.0000000000000000   F   F   F
  0.7509819688615238  0.7538546553093965  0.4098730637574093   T   T   T
  0.5000000000000000  0.5000000000000000  0.0000000000000000   F   F   F
  0.2475778397983248  0.7559188905516550  0.4101177287157256   T   T   T
  0.4991717976557410  0.0023764927455900  0.4091496006853177   T   T   T
  0.2500000000000000  0.2500000000000000  0.0000000000000000   F   F   F
  0.5000000000000000  0.0000000000000000  0.0000000000000000   F   F   F
  0.2435220909059552  0.2445099057904017  0.4118849432735772   T   T   T
  0.5057402638096278  0.5066513752236972  0.4117789983121511   T   T   T
  0.2500000000000000  0.7500000000000000  0.0000000000000000   F   F   F
  0.9941622672870807  0.5024479965850972  0.4101077413426211   T   T   T
  0.7500000000000000  0.7500000000000000  0.0000000000000000   F   F   F
  0.0000000000000000  0.0000000000000000  0.0000000000000000   F   F   F
  0.7476620551691227  0.2508602828720399  0.4091539056078233   T   T   T
  0.3223259150362523  0.4288039630949214  0.4911892445687229   F   F   T
  0.3223259150362523  0.4288039630949214  0.5493932537698640   F   F   T
 
  0.00000000E+00  0.00000000E+00  0.00000000E+00
  0.00000000E+00  0.00000000E+00  0.00000000E+00
  0.00000000E+00  0.00000000E+00  0.00000000E+00
  0.00000000E+00  0.00000000E+00  0.00000000E+00
  0.00000000E+00  0.00000000E+00  0.00000000E+00
  0.00000000E+00  0.00000000E+00  0.00000000E+00
  0.00000000E+00  0.00000000E+00  0.00000000E+00
  0.00000000E+00  0.00000000E+00  0.00000000E+00
  0.00000000E+00  0.00000000E+00  0.00000000E+00
  0.00000000E+00  0.00000000E+00  0.00000000E+00
  0.00000000E+00  0.00000000E+00  0.00000000E+00
  0.00000000E+00  0.00000000E+00  0.00000000E+00
  0.00000000E+00  0.00000000E+00  0.00000000E+00
  0.00000000E+00  0.00000000E+00  0.00000000E+00
  0.00000000E+00  0.00000000E+00  0.00000000E+00
  0.00000000E+00  0.00000000E+00  0.00000000E+00
  0.00000000E+00  0.00000000E+00  0.00000000E+00
  0.00000000E+00  0.00000000E+00  0.00000000E+00
  0.00000000E+00  0.00000000E+00  0.00000000E+00
  0.00000000E+00  0.00000000E+00  0.00000000E+00
  0.00000000E+00  0.00000000E+00  0.00000000E+00
  0.00000000E+00  0.00000000E+00  0.00000000E+00
  0.00000000E+00  0.00000000E+00  0.00000000E+00
  0.00000000E+00  0.00000000E+00  0.00000000E+00
  0.00000000E+00  0.00000000E+00  0.00000000E+00
  0.00000000E+00  0.00000000E+00  0.00000000E+00
  0.00000000E+00  0.00000000E+00  0.00000000E+00
  0.00000000E+00  0.00000000E+00  0.00000000E+00
  0.00000000E+00  0.00000000E+00  0.00000000E+00
  0.00000000E+00  0.00000000E+00  0.00000000E+00
  0.00000000E+00  0.00000000E+00  0.00000000E+00
  0.00000000E+00  0.00000000E+00  0.00000000E+00
  0.00000000E+00  0.00000000E+00  0.00000000E+00
  0.00000000E+00  0.00000000E+00  0.00000000E+00
  0.00000000E+00  0.00000000E+00  0.00000000E+00
  0.00000000E+00  0.00000000E+00  0.00000000E+00
  0.00000000E+00  0.00000000E+00  0.00000000E+00
  0.00000000E+00  0.00000000E+00  0.00000000E+00
  0.00000000E+00  0.00000000E+00  0.00000000E+00
  0.00000000E+00  0.00000000E+00  0.00000000E+00
  0.00000000E+00  0.00000000E+00  0.00000000E+00
  0.00000000E+00  0.00000000E+00  0.00000000E+00
  0.00000000E+00  0.00000000E+00  0.00000000E+00
  0.00000000E+00  0.00000000E+00  0.00000000E+00
  0.00000000E+00  0.00000000E+00  0.00000000E+00
  0.00000000E+00  0.00000000E+00  0.00000000E+00
  0.00000000E+00  0.00000000E+00  0.00000000E+00
  0.00000000E+00  0.00000000E+00  0.00000000E+00
  0.00000000E+00  0.00000000E+00  0.00000000E+00
  0.00000000E+00  0.00000000E+00  0.00000000E+00
  0.00000000E+00  0.00000000E+00  0.00000000E+00
  0.00000000E+00  0.00000000E+00  0.00000000E+00
  0.00000000E+00  0.00000000E+00  0.00000000E+00
  0.00000000E+00  0.00000000E+00  0.00000000E+00
  0.00000000E+00  0.00000000E+00  0.00000000E+00
  0.00000000E+00  0.00000000E+00  0.00000000E+00
  0.00000000E+00  0.00000000E+00  0.00000000E+00
  0.00000000E+00  0.00000000E+00  0.00000000E+00
  0.00000000E+00  0.00000000E+00  0.00000000E+00
  0.00000000E+00  0.00000000E+00  0.00000000E+00
  0.00000000E+00  0.00000000E+00  0.00000000E+00
  0.00000000E+00  0.00000000E+00  0.00000000E+00
  0.00000000E+00  0.00000000E+00  0.00000000E+00
  0.00000000E+00  0.00000000E+00  0.00000000E+00
  0.00000000E+00  0.00000000E+00  0.00000000E+00
  0.00000000E+00  0.00000000E+00  0.00000000E+00
